NAME : lc109.1000597.tour
COMMENT : Cost = 0_1000597
COMMENT : Found by LKH [Keld Helsgaun] Fri Sep 15 17:42:00 2017
TYPE : TOUR
DIMENSION : 115
TOUR_SECTION
1
68
55
54
57
59
61
60
62
65
69
67
70
113
44
43
58
56
73
102
45
47
46
49
107
52
51
48
114
8
14
18
19
20
16
17
15
13
5
110
91
88
87
84
83
85
86
89
90
92
111
66
64
75
63
9
11
12
10
7
3
2
76
112
6
4
99
96
95
93
94
98
101
100
115
21
25
28
106
33
36
38
39
40
37
104
35
53
50
109
97
105
82
79
77
72
71
74
78
103
80
81
108
26
34
32
42
41
30
31
29
27
24
23
22
-1
EOF
